p cnf 128 639
c p weight 14 0 0
c p weight -14 1 0
c p weight 15 1 0
c p weight -15 1 0
c p weight 22 0 0
c p weight -22 1 0
c p weight 23 1 0
c p weight -23 1 0
c p weight 28 0.70710678118654752440084436210485 0
c p weight 33 0 0
c p weight -33 1 0
c p weight 34 1 0
c p weight -34 1 0
c p weight 63 0 0
c p weight -63 1 0
c p weight 64 1 0
c p weight -64 1 0
c p weight 72 0.70710678118654752440084436210485 0
c p weight 78 0.70710678118654752440084436210485 0
c p weight 83 0 0
c p weight -83 1 0
c p weight 84 1 0
c p weight -84 1 0
c p weight 89 0.9238795325112867384831361050601117312908172607421875 0
c p weight -89 1 0
c p weight 90 -0.382683432365089781779232680491986684501171112060546875 0
c p weight -90 1 0
c p weight 96 0.9238795325112867384831361050601117312908172607421875 0
c p weight -96 1 0
c p weight 97 0.382683432365089781779232680491986684501171112060546875 0
c p weight -97 1 0
c p weight 103 0.9238795325112867384831361050601117312908172607421875 0
c p weight -103 1 0
c p weight 104 -0.382683432365089781779232680491986684501171112060546875 0
c p weight -104 1 0
c p weight 107 0.70710678118654752440084436210485 0
c p weight 113 0.70710678118654752440084436210485 0
c p weight 119 0.70710678118654752440084436210485 0
c p weight 124 0 0
c p weight -124 1 0
c p weight 125 1 0
c p weight -125 1 0
c p weight 126 -1 0
c p weight -126 1 0
c p weight 128 0.5 0
128 0
-9 0
-7 0
-5 0
-3 0
-1 0
10 -9 1 0
10 -9 2 0
-10 9 1 0
-10 9 2 0
10 9 -1 -2 0
-10 -9 -1 -2 0
11 1 -2 0
11 -1 2 0
-11 1 2 0
-11 -1 -2 0
12 13 -10 0
12 -10 11 0
-12 13 10 0
-12 10 11 0
12 -10 -1 0
-12 10 -1 0
12 -13 10 1 -11 0
-12 -13 -10 1 -11 0
13 -1 11 0
-13 1 11 0
-14 11 0
13 -14 -1 0
-13 -14 1 0
13 14 1 -11 0
-13 14 -1 -11 0
-15 11 0
13 -15 1 0
-13 -15 -1 0
13 15 -1 -11 0
-13 15 1 -11 0
16 -12 13 0
16 -12 11 0
-16 12 13 0
-16 12 11 0
16 12 -13 -11 0
-16 -12 -13 -11 0
17 13 -11 0
17 -13 11 0
-17 13 11 0
-17 -13 -11 0
18 -16 3 0
18 -16 4 0
-18 16 3 0
-18 16 4 0
18 16 -3 -4 0
-18 -16 -3 -4 0
19 3 -4 0
19 -3 4 0
-19 3 4 0
-19 -3 -4 0
20 21 -18 0
20 -18 19 0
-20 21 18 0
-20 18 19 0
20 -18 -3 0
-20 18 -3 0
20 -21 18 3 -19 0
-20 -21 -18 3 -19 0
21 -3 19 0
-21 3 19 0
-22 19 0
21 -22 -3 0
-21 -22 3 0
21 22 3 -19 0
-21 22 -3 -19 0
-23 19 0
21 -23 3 0
-21 -23 -3 0
21 23 -3 -19 0
-21 23 3 -19 0
24 -20 21 0
24 -20 19 0
-24 20 21 0
-24 20 19 0
24 20 -21 -19 0
-24 -20 -21 -19 0
25 21 -19 0
25 -21 19 0
-25 21 19 0
-25 -21 -19 0
26 27 -24 0
26 -24 21 0
-26 27 24 0
-26 24 21 0
26 -24 -25 0
-26 24 -25 0
26 -27 24 -21 25 0
-26 -27 -24 -21 25 0
27 21 -25 0
-27 21 25 0
28 -21 0
-28 21 0
29 -26 5 0
29 -26 6 0
-29 26 5 0
-29 26 6 0
29 26 -5 -6 0
-29 -26 -5 -6 0
30 5 -6 0
30 -5 6 0
-30 5 6 0
-30 -5 -6 0
31 32 -29 0
31 -29 30 0
-31 32 29 0
-31 29 30 0
31 -29 -5 0
-31 29 -5 0
31 -32 29 5 -30 0
-31 -32 -29 5 -30 0
32 -5 30 0
-32 5 30 0
-33 30 0
32 -33 -5 0
-32 -33 5 0
32 33 5 -30 0
-32 33 -5 -30 0
-34 30 0
32 -34 5 0
-32 -34 -5 0
32 34 -5 -30 0
-32 34 5 -30 0
35 -31 32 0
35 -31 30 0
-35 31 32 0
-35 31 30 0
35 31 -32 -30 0
-35 -31 -32 -30 0
36 32 -30 0
36 -32 30 0
-36 32 30 0
-36 -32 -30 0
37 35 -8 0
37 -35 8 0
-37 35 8 0
-37 -35 -8 0
38 -37 7 0
38 -37 8 0
-38 37 7 0
-38 37 8 0
38 37 -7 -8 0
-38 -37 -7 -8 0
39 7 -8 0
39 -7 8 0
-39 7 8 0
-39 -7 -8 0
40 -38 7 0
40 -38 17 0
-40 38 7 0
-40 38 17 0
40 -38 13 -39 0
40 -38 -13 39 0
-40 38 13 -39 0
-40 38 -13 39 0
40 38 -7 13 39 -17 0
40 38 -7 -13 -39 -17 0
-40 -38 -7 13 39 -17 0
-40 -38 -7 -13 -39 -17 0
42 7 -13 0
42 -7 13 0
-42 7 13 0
-42 -7 -13 0
41 39 -17 0
41 -39 17 0
-41 39 17 0
-41 -39 -17 0
43 -40 42 0
-43 40 42 0
43 -40 -17 0
-43 40 -17 0
43 40 -42 17 0
-43 -40 -42 17 0
44 42 -17 0
44 -42 17 0
-44 42 17 0
-44 -42 -17 0
45 -43 7 0
45 -43 44 0
-45 43 7 0
-45 43 44 0
45 -43 42 -41 0
45 -43 -42 41 0
-45 43 42 -41 0
-45 43 -42 41 0
45 43 -7 42 41 -44 0
45 43 -7 -42 -41 -44 0
-45 -43 -7 42 41 -44 0
-45 -43 -7 -42 -41 -44 0
47 7 -42 0
47 -7 42 0
-47 7 42 0
-47 -7 -42 0
46 41 -44 0
46 -41 44 0
-46 41 44 0
-46 -41 -44 0
48 -45 47 0
48 -45 44 0
-48 45 47 0
-48 45 44 0
48 45 -47 -44 0
-48 -45 -47 -44 0
49 47 -44 0
49 -47 44 0
-49 47 44 0
-49 -47 -44 0
50 -48 47 0
50 -48 36 0
-50 48 47 0
-50 48 36 0
50 -48 32 -49 0
50 -48 -32 49 0
-50 48 32 -49 0
-50 48 -32 49 0
50 48 -47 32 49 -36 0
50 48 -47 -32 -49 -36 0
-50 -48 -47 32 49 -36 0
-50 -48 -47 -32 -49 -36 0
52 47 -32 0
52 -47 32 0
-52 47 32 0
-52 -47 -32 0
51 49 -36 0
51 -49 36 0
-51 49 36 0
-51 -49 -36 0
53 -50 52 0
53 -50 51 0
-53 50 52 0
-53 50 51 0
53 -50 47 -36 0
53 -50 -47 36 0
-53 50 47 -36 0
-53 50 -47 36 0
53 50 -52 47 36 -51 0
53 50 -52 -47 -36 -51 0
-53 -50 -52 47 36 -51 0
-53 -50 -52 -47 -36 -51 0
55 52 -47 0
55 -52 47 0
-55 52 47 0
-55 -52 -47 0
54 36 -51 0
54 -36 51 0
-54 36 51 0
-54 -36 -51 0
56 -53 55 0
56 -53 54 0
-56 53 55 0
-56 53 54 0
56 -53 52 -51 0
56 -53 -52 51 0
-56 53 52 -51 0
-56 53 -52 51 0
56 53 -55 52 51 -54 0
56 53 -55 -52 -51 -54 0
-56 -53 -55 52 51 -54 0
-56 -53 -55 -52 -51 -54 0
58 55 -52 0
58 -55 52 0
-58 55 52 0
-58 -55 -52 0
57 51 -54 0
57 -51 54 0
-57 51 54 0
-57 -51 -54 0
59 -56 55 0
59 -56 57 0
-59 56 55 0
-59 56 57 0
59 56 -55 -57 0
-59 -56 -55 -57 0
60 55 -57 0
60 -55 57 0
-60 55 57 0
-60 -55 -57 0
61 62 -59 0
61 -59 60 0
-61 62 59 0
-61 59 60 0
61 -59 -55 0
-61 59 -55 0
61 -62 59 55 -60 0
-61 -62 -59 55 -60 0
62 -55 60 0
-62 55 60 0
-63 60 0
62 -63 -55 0
-62 -63 55 0
62 63 55 -60 0
-62 63 -55 -60 0
-64 60 0
62 -64 55 0
-62 -64 -55 0
62 64 -55 -60 0
-62 64 55 -60 0
65 -61 62 0
65 -61 60 0
-65 61 62 0
-65 61 60 0
65 61 -62 -60 0
-65 -61 -62 -60 0
66 62 -60 0
66 -62 60 0
-66 62 60 0
-66 -62 -60 0
67 -65 21 0
67 -65 66 0
-67 65 21 0
-67 65 66 0
67 -65 62 -27 0
67 -65 -62 27 0
-67 65 62 -27 0
-67 65 -62 27 0
67 65 -21 62 27 -66 0
67 65 -21 -62 -27 -66 0
-67 -65 -21 62 27 -66 0
-67 -65 -21 -62 -27 -66 0
69 21 -62 0
69 -21 62 0
-69 21 62 0
-69 -21 -62 0
68 27 -66 0
68 -27 66 0
-68 27 66 0
-68 -27 -66 0
70 -67 69 0
70 -67 66 0
-70 67 69 0
-70 67 66 0
70 -71 -67 0
-70 -71 67 0
70 71 67 -69 -66 0
-70 71 -67 -69 -66 0
71 69 -66 0
-71 69 66 0
72 -69 0
-72 69 0
73 -70 21 0
73 -70 71 0
-73 70 21 0
-73 70 71 0
73 -70 69 -68 0
73 -70 -69 68 0
-73 70 69 -68 0
-73 70 -69 68 0
73 70 -21 69 68 -71 0
73 70 -21 -69 -68 -71 0
-73 -70 -21 69 68 -71 0
-73 -70 -21 -69 -68 -71 0
75 21 -69 0
75 -21 69 0
-75 21 69 0
-75 -21 -69 0
74 68 -71 0
74 -68 71 0
-74 68 71 0
-74 -68 -71 0
76 77 -73 0
76 -73 75 0
-76 77 73 0
-76 73 75 0
76 -73 -71 0
-76 73 -71 0
76 -77 73 -75 71 0
-76 -77 -73 -75 71 0
77 75 -71 0
-77 75 71 0
78 -75 0
-78 75 0
79 -76 21 0
79 -76 74 0
-79 76 21 0
-79 76 74 0
79 76 -21 -74 0
-79 -76 -21 -74 0
80 21 -74 0
80 -21 74 0
-80 21 74 0
-80 -21 -74 0
81 82 -79 0
81 -79 80 0
-81 82 79 0
-81 79 80 0
81 -79 -21 0
-81 79 -21 0
81 -82 79 21 -80 0
-81 -82 -79 21 -80 0
82 -21 80 0
-82 21 80 0
-83 80 0
82 -83 -21 0
-82 -83 21 0
82 83 21 -80 0
-82 83 -21 -80 0
-84 80 0
82 -84 21 0
-82 -84 -21 0
82 84 -21 -80 0
-82 84 21 -80 0
85 -81 82 0
85 -81 80 0
-85 81 82 0
-85 81 80 0
85 81 -82 -80 0
-85 -81 -82 -80 0
86 82 -80 0
86 -82 80 0
-86 82 80 0
-86 -82 -80 0
87 -85 58 0
87 -85 54 0
-87 85 58 0
-87 85 54 0
87 -88 -85 0
-87 -88 85 0
87 88 85 -58 -54 0
-87 88 -85 -58 -54 0
88 58 -54 0
-88 58 54 0
-89 58 0
88 -89 -54 0
-88 -89 54 0
88 89 -58 54 0
-88 89 -58 -54 0
-90 58 0
88 -90 54 0
-88 -90 -54 0
88 90 -58 -54 0
-88 90 -58 54 0
91 -87 58 0
91 -87 77 0
-91 87 58 0
-91 87 77 0
91 -87 75 -88 0
91 -87 -75 88 0
-91 87 75 -88 0
-91 87 -75 88 0
91 87 -58 75 88 -77 0
91 87 -58 -75 -88 -77 0
-91 -87 -58 75 88 -77 0
-91 -87 -58 -75 -88 -77 0
93 58 -75 0
93 -58 75 0
-93 58 75 0
-93 -58 -75 0
92 88 -77 0
92 -88 77 0
-92 88 77 0
-92 -88 -77 0
94 -91 93 0
94 -91 77 0
-94 91 93 0
-94 91 77 0
94 -95 -91 0
-94 -95 91 0
94 95 91 -93 -77 0
-94 95 -91 -93 -77 0
95 93 -77 0
-95 93 77 0
-96 93 0
95 -96 -77 0
-95 -96 77 0
95 96 -93 77 0
-95 96 -93 -77 0
-97 93 0
95 -97 77 0
-95 -97 -77 0
95 97 -93 -77 0
-95 97 -93 77 0
98 -94 58 0
98 -94 95 0
-98 94 58 0
-98 94 95 0
98 -94 93 -92 0
98 -94 -93 92 0
-98 94 93 -92 0
-98 94 -93 92 0
98 94 -58 93 92 -95 0
98 94 -58 -93 -92 -95 0
-98 -94 -58 93 92 -95 0
-98 -94 -58 -93 -92 -95 0
100 58 -93 0
100 -58 93 0
-100 58 93 0
-100 -58 -93 0
99 92 -95 0
99 -92 95 0
-99 92 95 0
-99 -92 -95 0
101 -98 100 0
101 -98 95 0
-101 98 100 0
-101 98 95 0
101 -102 -98 0
-101 -102 98 0
101 102 98 -100 -95 0
-101 102 -98 -100 -95 0
102 100 -95 0
-102 100 95 0
-103 100 0
102 -103 -95 0
-102 -103 95 0
102 103 -100 95 0
-102 103 -100 -95 0
-104 100 0
102 -104 95 0
-102 -104 -95 0
102 104 -100 -95 0
-102 104 -100 95 0
105 106 -101 0
105 -101 58 0
-105 106 101 0
-105 101 58 0
105 -101 -99 0
-105 101 -99 0
105 -106 101 -58 99 0
-105 -106 -101 -58 99 0
106 58 -99 0
-106 58 99 0
107 -58 0
-107 58 0
108 -105 58 0
108 -105 86 0
-108 105 58 0
-108 105 86 0
108 -105 82 -106 0
108 -105 -82 106 0
-108 105 82 -106 0
-108 105 -82 106 0
108 105 -58 82 106 -86 0
108 105 -58 -82 -106 -86 0
-108 -105 -58 82 106 -86 0
-108 -105 -58 -82 -106 -86 0
110 58 -82 0
110 -58 82 0
-110 58 82 0
-110 -58 -82 0
109 106 -86 0
109 -106 86 0
-109 106 86 0
-109 -106 -86 0
111 -108 110 0
111 -108 86 0
-111 108 110 0
-111 108 86 0
111 -112 -108 0
-111 -112 108 0
111 112 108 -110 -86 0
-111 112 -108 -110 -86 0
112 110 -86 0
-112 110 86 0
113 -110 0
-113 110 0
114 -111 58 0
114 -111 112 0
-114 111 58 0
-114 111 112 0
114 -111 110 -109 0
114 -111 -110 109 0
-114 111 110 -109 0
-114 111 -110 109 0
114 111 -58 110 109 -112 0
114 111 -58 -110 -109 -112 0
-114 -111 -58 110 109 -112 0
-114 -111 -58 -110 -109 -112 0
116 58 -110 0
116 -58 110 0
-116 58 110 0
-116 -58 -110 0
115 109 -112 0
115 -109 112 0
-115 109 112 0
-115 -109 -112 0
117 118 -114 0
117 -114 116 0
-117 118 114 0
-117 114 116 0
117 -114 -112 0
-117 114 -112 0
117 -118 114 -116 112 0
-117 -118 -114 -116 112 0
118 116 -112 0
-118 116 112 0
119 -116 0
-119 116 0
120 -117 58 0
120 -117 115 0
-120 117 58 0
-120 117 115 0
120 117 -58 -115 0
-120 -117 -58 -115 0
121 58 -115 0
121 -58 115 0
-121 58 115 0
-121 -58 -115 0
122 123 -120 0
122 -120 121 0
-122 123 120 0
-122 120 121 0
122 -120 -58 0
-122 120 -58 0
122 -123 120 58 -121 0
-122 -123 -120 58 -121 0
123 -58 121 0
-123 58 121 0
-124 121 0
123 -124 -58 0
-123 -124 58 0
123 124 58 -121 0
-123 124 -58 -121 0
-125 121 0
123 -125 58 0
-123 -125 -58 0
123 125 -58 -121 0
-123 125 58 -121 0
126 -122 123 0
126 -122 121 0
-126 122 123 0
-126 122 121 0
126 122 -123 -121 0
-126 -122 -123 -121 0
127 123 -121 0
127 -123 121 0
-127 123 121 0
-127 -123 -121 0
-100 0
-116 0
-118 0
-123 0
-127 0
-7 0
-46 0
